networks/zoo_220_7197/zoo_220_7197-lower.txt
Number of groups: 111
Flow 220: {5 49 0} {49 39 0} {39 149 0} 
Flow 416: {8 9 0} {9 10 0} {10 40 0} {40 37 0} {37 54 0} {54 45 0} {45 61 0} {61 171 0} 
Flow 568: {19 28 0} {28 138 0} 
Flow 883: {29 139 0} 
Flow 888: {43 69 0} {69 42 0} 
Flow 918: {15 45 0} {45 54 0} {54 37 0} {37 147 0} 
Flow 1095: {18 11 0} {11 83 0} {83 193 0} 
Flow 1200: {4 102 0} {102 92 0} {92 202 0} 
Flow 1208: {103 213 0} 
Flow 1478: {23 11 0} {11 32 0} {32 142 0} 
Flow 1524: {11 38 0} {38 59 0} {59 108 0} {108 107 0} {107 217 0} 
Flow 1528: {24 32 0} {32 21 0} {21 73 0} {73 17 0} {17 28 0} {28 19 0} {19 8 0} {8 65 0} {65 46 0} {46 156 0} 
Flow 1531: {17 57 0} {57 58 0} {58 93 0} {93 56 0} {56 166 0} 
Flow 1536: {25 28 0} {28 13 0} {13 20 0} {20 7 0} {7 117 0} 
Flow 1552: {30 140 0} 
Flow 1604: {25 17 0} {17 90 0} {90 200 0} 
Flow 1625: {27 13 0} {13 123 0} 
Flow 1742: {26 53 0} {53 13 0} {13 27 0} {27 19 0} {19 129 0} 
Flow 1776: {78 57 0} {57 167 0} 
Flow 1796: {44 80 0} 
Flow 1951: {87 95 0} {95 109 0} {109 219 0} 
Flow 2270: {90 52 0} {52 89 0} {89 77 0} {77 88 0} {88 198 0} 
Flow 2345: {22 12 0} {12 73 0} {73 183 0} 
Flow 2399: {104 103 0} {103 35 0} {35 105 0} {105 14 0} {14 62 0} {62 38 0} {38 148 0} 
Flow 2474: {107 12 0} {12 74 0} {74 48 0} {48 158 0} 
Flow 2662: {20 8 0} {8 19 0} {19 48 0} {48 47 0} {47 22 0} {22 132 0} 
Flow 2754: {42 41 0} {41 82 0} {82 44 0} {44 154 0} 
Flow 2765: {42 72 0} {72 64 0} {64 174 0} 
Flow 2832: {69 41 0} {41 72 0} {72 182 0} 
Flow 2872: {74 12 0} {12 122 0} 
Flow 2875: {45 16 0} {16 126 0} 
Flow 2953: {31 101 0} {101 211 0} 
Flow 3011: {61 60 0} {60 170 0} 
Flow 3016: {9 65 0} {65 175 0} 
Flow 3021: {10 9 0} {9 8 0} {8 20 0} {20 13 0} {13 53 0} {53 39 0} {39 50 0} {50 71 0} {71 181 0} 
Flow 3024: {40 2 0} {2 66 0} {66 68 0} {68 46 0} {46 75 0} 
Flow 3471: {96 206 0} 
Flow 3609: {53 26 0} {26 29 0} {29 30 0} {30 78 0} {78 188 0} 
Flow 3788: {56 3 0} {3 102 0} {102 212 0} 
Flow 3852: {68 66 0} {66 176 0} 
Flow 3854: {55 39 0} {39 49 0} {49 5 0} {5 6 0} {6 34 0} {34 46 0} {46 68 0} {68 178 0} 
Flow 4014: {3 4 0} {4 50 0} {50 160 0} 
Flow 4085: {61 45 0} {45 155 0} 
Flow 4100: {54 36 0} {36 76 0} {76 186 0} 
Flow 4127: {48 19 0} {19 27 0} {27 137 0} 
Flow 4260: {63 42 0} {42 69 0} {69 43 0} {43 80 0} {80 190 0} 
Flow 4281: {2 112 0} 
Flow 4299: {28 25 0} 
Flow 4361: {86 91 0} {91 201 0} 
Flow 4367: {31 100 0} {100 210 0} 
Flow 4475: {65 8 0} {8 118 0} 
Flow 4496: {46 34 0} {34 144 0} 
Flow 4501: {66 2 0} {2 40 0} {40 150 0} 
Flow 4549: {37 76 0} {76 36 0} {36 1 0} {1 104 0} {104 214 0} 
Flow 4556: {49 50 0} {50 4 0} {4 3 0} {3 113 0} 
Flow 4608: {110 70 0} {70 180 0} 
Flow 4697: {39 55 0} {55 56 0} {56 93 0} {93 203 0} 
Flow 4813: {70 44 0} {44 43 0} {43 153 0} 
Flow 4901: {71 64 0} {64 85 0} {85 195 0} 
Flow 5017: {32 24 0} 
Flow 5038: {73 12 0} {12 22 0} {22 47 0} {47 157 0} 
Flow 5173: {75 46 0} {46 65 0} {65 9 0} {9 119 0} 
Flow 5177: {75 33 0} {33 34 0} {34 7 0} {7 20 0} {20 130 0} 
Flow 5293: {89 52 0} {52 94 0} 
Flow 5294: {88 95 0} {95 205 0} 
Flow 5442: {80 43 0} {43 110 0} {110 67 0} {67 177 0} 
Flow 5447: {80 44 0} {44 33 0} {33 75 0} {75 185 0} 
Flow 5499: {81 41 0} {41 69 0} {69 179 0} 
Flow 5500: {79 44 0} {44 70 0} 
Flow 5525: {13 28 0} {28 17 0} {17 73 0} {73 21 0} {21 32 0} {32 11 0} {11 121 0} 
Flow 5570: {82 41 0} {41 42 0} {42 63 0} {63 173 0} 
Flow 5619: {83 11 0} {11 23 0} {23 133 0} 
Flow 5673: {83 84 0} 
Flow 5708: {84 11 0} {11 18 0} {18 24 0} {24 134 0} 
Flow 5741: {14 105 0} {105 35 0} {35 103 0} {103 104 0} {104 1 0} {1 36 0} {36 54 0} {54 60 0} 
Flow 5772: {105 215 0} 
Flow 5773: {38 62 0} {62 14 0} {14 106 0} {106 216 0} 
Flow 5944: {51 52 0} {52 162 0} 
Flow 5954: {62 172 0} 
Flow 5976: {95 88 0} {88 77 0} {77 89 0} {89 199 0} 
Flow 5987: {7 34 0} {34 33 0} {33 67 0} {67 110 0} {110 220 0} 
Flow 6085: {12 107 0} {107 106 0} {106 14 0} {14 124 0} 
Flow 6200: {91 92 0} {92 102 0} {102 3 0} {3 56 0} {56 55 0} {55 165 0} 
Flow 6247: {57 17 0} {17 127 0} 
Flow 6258: {92 91 0} {91 86 0} {86 31 0} {31 141 0} 
Flow 6299: {72 41 0} {41 81 0} {81 79 0} {79 189 0} 
Flow 6349: {94 52 0} {52 90 0} {90 17 0} {17 25 0} {25 135 0} 
Flow 6350: {94 51 0} {51 58 0} {58 57 0} {57 78 0} {78 30 0} {30 29 0} {29 26 0} {26 136 0} 
Flow 6563: {97 58 0} {58 51 0} {51 94 0} {94 204 0} 
Flow 6567: {85 102 0} {102 4 0} {4 114 0} 
Flow 6574: {99 64 0} {64 71 0} {71 50 0} {50 49 0} {49 159 0} 
Flow 6576: {50 39 0} {39 53 0} {53 163 0} 
Flow 6579: {100 31 0} 
Flow 6580: {101 31 0} {31 85 0} {85 64 0} {64 72 0} {72 42 0} {42 152 0} 
Flow 6637: {93 58 0} {58 168 0} 
Flow 6766: {76 37 0} {37 40 0} {40 10 0} {10 120 0} 
Flow 6821: {35 47 0} {47 48 0} {48 74 0} {74 184 0} 
Flow 6893: {106 107 0} {107 108 0} {108 59 0} {59 169 0} 
Flow 6912: {33 44 0} {44 79 0} {79 81 0} {81 191 0} 
Flow 6959: {47 35 0} {35 145 0} 
Flow 7004: {102 85 0} {85 31 0} {31 86 0} {86 196 0} 
Flow 7088: {59 38 0} {38 11 0} {11 84 0} {84 194 0} 
Flow 7091: {52 51 0} {51 96 0} {96 87 0} {87 197 0} 
Flow 7110: {109 95 0} {95 87 0} {87 96 0} {96 51 0} {51 161 0} 
Flow 7112: {1 111 0} 
Flow 7116: {34 6 0} {6 5 0} {5 115 0} 
Flow 7127: {21 131 0} 
Flow 7138: {67 33 0} {33 143 0} 
Flow 7156: {54 164 0} 
Flow 7177: {77 187 0} 
Flow 7181: {110 43 0} {43 44 0} {44 82 0} {82 192 0} 
Time taken running everything: 98 seconds
