networks/zoo_220_7197/zoo_220_7197-lower.sol
<?xml version = "1.0" encoding="UTF-8" standalone="yes"?>
<CPLEXSolution version="1.2">
 <header
   problemName="networks/zoo_220_7197/zoo_220_7197-lower.lp"
   solutionName="incumbent"
   solutionIndex="-1"
   objectiveValue="101"
   solutionTypeValue="3"
   solutionTypeString="primal"
   solutionStatusValue="101"
   solutionStatusString="integer optimal solution"
   solutionMethodString="mip"
   primalFeasible="1"
   dualFeasible="1"
   MIPNodes="0"
   MIPIterations="0"
   writeLevel="3"/>
 <quality
   epInt="1.0000000000000001e-05"
   epRHS="9.9999999999999995e-07"
   maxIntInfeas="0"
   maxPrimalInfeas="0"
   maxX="1"
   maxSlack="1"/>
 <variables>
  <variable name="Y(1,44)" index="43" value="1"/>
  <variable name="Y(2,51)" index="260" value="1"/>
  <variable name="Y(3,1)" index="420" value="1"/>
  <variable name="Y(4,3)" index="632" value="1"/>
  <variable name="Y(5,4)" index="843" value="1"/>
  <variable name="Y(6,5)" index="1054" value="1"/>
  <variable name="Y(7,7)" index="1266" value="1"/>
  <variable name="Y(8,8)" index="1477" value="1"/>
  <variable name="Y(9,9)" index="1688" value="1"/>
  <variable name="Y(10,10)" index="1899" value="1"/>
  <variable name="Y(11,11)" index="2110" value="1"/>
  <variable name="Y(12,13)" index="2322" value="1"/>
  <variable name="Y(13,14)" index="2533" value="1"/>
  <variable name="Y(14,17)" index="2746" value="1"/>
  <variable name="Y(15,19)" index="2958" value="1"/>
  <variable name="Y(16,20)" index="3169" value="1"/>
  <variable name="Y(17,21)" index="3380" value="1"/>
  <variable name="Y(18,23)" index="3592" value="1"/>
  <variable name="Y(19,24)" index="3803" value="1"/>
  <variable name="Y(20,25)" index="4014" value="1"/>
  <variable name="Y(21,26)" index="4225" value="1"/>
  <variable name="Y(22,27)" index="4436" value="1"/>
  <variable name="Y(23,28)" index="4647" value="1"/>
  <variable name="Y(24,29)" index="4858" value="1"/>
  <variable name="Y(25,30)" index="5069" value="1"/>
  <variable name="Y(26,31)" index="5280" value="1"/>
  <variable name="Y(27,32)" index="5491" value="1"/>
  <variable name="Y(28,33)" index="5702" value="1"/>
  <variable name="Y(29,34)" index="5913" value="1"/>
  <variable name="Y(30,35)" index="6124" value="1"/>
  <variable name="Y(31,37)" index="6336" value="1"/>
  <variable name="Y(32,38)" index="6547" value="1"/>
  <variable name="Y(33,39)" index="6758" value="1"/>
  <variable name="Y(34,40)" index="6969" value="1"/>
  <variable name="Y(35,42)" index="7181" value="1"/>
  <variable name="Y(36,43)" index="7392" value="1"/>
  <variable name="Y(38,45)" index="7814" value="1"/>
  <variable name="Y(39,46)" index="8025" value="1"/>
  <variable name="Y(40,47)" index="8236" value="1"/>
  <variable name="Y(41,48)" index="8447" value="1"/>
  <variable name="Y(42,49)" index="8658" value="1"/>
  <variable name="Y(44,52)" index="9081" value="1"/>
  <variable name="Y(45,53)" index="9292" value="1"/>
  <variable name="Y(46,54)" index="9503" value="1"/>
  <variable name="Y(47,55)" index="9714" value="1"/>
  <variable name="Y(48,56)" index="9925" value="1"/>
  <variable name="Y(49,57)" index="10136" value="1"/>
  <variable name="Y(50,58)" index="10347" value="1"/>
  <variable name="Y(51,59)" index="10558" value="1"/>
  <variable name="Y(52,60)" index="10769" value="1"/>
  <variable name="Y(53,61)" index="10980" value="1"/>
  <variable name="Y(54,62)" index="11191" value="1"/>
  <variable name="Y(55,63)" index="11402" value="1"/>
  <variable name="Y(56,64)" index="11613" value="1"/>
  <variable name="Y(57,65)" index="11824" value="1"/>
  <variable name="Y(58,66)" index="12035" value="1"/>
  <variable name="Y(59,67)" index="12246" value="1"/>
  <variable name="Y(60,69)" index="12458" value="1"/>
  <variable name="Y(61,70)" index="12669" value="1"/>
  <variable name="Y(62,71)" index="12880" value="1"/>
  <variable name="Y(63,73)" index="13092" value="1"/>
  <variable name="Y(64,74)" index="13303" value="1"/>
  <variable name="Y(65,75)" index="13514" value="1"/>
  <variable name="Y(66,76)" index="13725" value="1"/>
  <variable name="Y(67,77)" index="13936" value="1"/>
  <variable name="Y(68,79)" index="14148" value="1"/>
  <variable name="Y(69,80)" index="14359" value="1"/>
  <variable name="Y(70,81)" index="14570" value="1"/>
  <variable name="Y(71,82)" index="14781" value="1"/>
  <variable name="Y(72,84)" index="14993" value="1"/>
  <variable name="Y(73,85)" index="15204" value="1"/>
  <variable name="Y(74,86)" index="15415" value="1"/>
  <variable name="Y(75,87)" index="15626" value="1"/>
  <variable name="Y(76,88)" index="15837" value="1"/>
  <variable name="Y(77,89)" index="16048" value="1"/>
  <variable name="Y(78,90)" index="16259" value="1"/>
  <variable name="Y(79,93)" index="16472" value="1"/>
  <variable name="Y(80,94)" index="16683" value="1"/>
  <variable name="Y(81,95)" index="16894" value="1"/>
  <variable name="Y(82,102)" index="17110" value="1"/>
  <variable name="Y(83,104)" index="17322" value="1"/>
  <variable name="Y(84,105)" index="17533" value="1"/>
  <variable name="Y(85,106)" index="17744" value="1"/>
  <variable name="Y(86,107)" index="17955" value="1"/>
  <variable name="Y(87,109)" index="18167" value="1"/>
  <variable name="Y(88,110)" index="18378" value="1"/>
  <variable name="Y(101,2)" index="21001" value="1"/>
  <variable name="Y(115,22)" index="23961" value="1"/>
  <variable name="Y(141,50)" index="29449" value="1"/>
  <variable name="Y(167,78)" index="34937" value="1"/>
  <variable name="Y(172,83)" index="35992" value="1"/>
  <variable name="Y(184,103)" index="38531" value="1"/>
  <variable name="Y(426,72)" index="89321" value="1"/>
  <variable name="Y(448,96)" index="93965" value="1"/>
  <variable name="Y(449,100)" index="94178" value="1"/>
  <variable name="Y(1126,12)" index="236261" value="1"/>
  <variable name="Y(1176,68)" index="246817" value="1"/>
  <variable name="Y(1199,91)" index="251670" value="1"/>
  <variable name="Y(1200,92)" index="251881" value="1"/>
  <variable name="Y(1206,101)" index="253149" value="1"/>
  <variable name="Y(2875,16)" index="603555" value="1"/>
  <variable name="X(1,36,1)" index="1511370" value="1"/>
  <variable name="X(1,104,2)" index="1518568" value="1"/>
  <variable name="X(1,111,3)" index="1525766" value="1"/>
  <variable name="X(2,40,3)" index="1532963" value="1"/>
  <variable name="X(2,66,1)" index="1540158" value="1"/>
  <variable name="X(2,112,101)" index="1547455" value="1"/>
  <variable name="X(3,4,89)" index="1554640" value="1"/>
  <variable name="X(3,56,96)" index="1561844" value="1"/>
  <variable name="X(3,102,90)" index="1569035" value="1"/>
  <variable name="X(3,113,4)" index="1576146" value="1"/>
  <variable name="X(4,3,4)" index="1583343" value="1"/>
  <variable name="X(4,50,94)" index="1590630" value="1"/>
  <variable name="X(4,102,26)" index="1597759" value="1"/>
  <variable name="X(4,114,5)" index="1604935" value="1"/>
  <variable name="X(5,6,94)" index="1612221" value="1"/>
  <variable name="X(5,49,4)" index="1619328" value="1"/>
  <variable name="X(5,115,6)" index="1626527" value="1"/>
  <variable name="X(6,5,4)" index="1633722" value="1"/>
  <variable name="X(6,34,94)" index="1641009" value="1"/>
  <variable name="X(7,20,195)" index="1648307" value="1"/>
  <variable name="X(7,34,659)" index="1655968" value="1"/>
  <variable name="X(7,117,7)" index="1662513" value="1"/>
  <variable name="X(8,9,106)" index="1669809" value="1"/>
  <variable name="X(8,19,13)" index="1676913" value="1"/>
  <variable name="X(8,20,12)" index="1684109" value="1"/>
  <variable name="X(8,65,156)" index="1691450" value="1"/>
  <variable name="X(8,118,8)" index="1698499" value="1"/>
  <variable name="X(9,8,8)" index="1705696" value="1"/>
  <variable name="X(9,10,129)" index="1713014" value="1"/>
  <variable name="X(9,65,462)" index="1720544" value="1"/>
  <variable name="X(9,119,9)" index="1727288" value="1"/>
  <variable name="X(10,9,8)" index="1734484" value="1"/>
  <variable name="X(10,40,129)" index="1741802" value="1"/>
  <variable name="X(10,120,10)" index="1748880" value="1"/>
  <variable name="X(11,18,650)" index="1756717" value="1"/>
  <variable name="X(11,23,18)" index="1763282" value="1"/>
  <variable name="X(11,32,634)" index="1771095" value="1"/>
  <variable name="X(11,38,32)" index="1777690" value="1"/>
  <variable name="X(11,83,172)" index="1785027" value="1"/>
  <variable name="X(11,84,72)" index="1792124" value="1"/>
  <variable name="X(11,121,11)" index="1799260" value="1"/>
  <variable name="X(12,22,115)" index="1806561" value="1"/>
  <variable name="X(12,73,2)" index="1813645" value="1"/>
  <variable name="X(12,74,672)" index="1821512" value="1"/>
  <variable name="X(12,107,51)" index="1828088" value="1"/>
  <variable name="X(12,122,1126)" index="1836360" value="1"/>
  <variable name="X(13,20,105)" index="1842536" value="1"/>
  <variable name="X(13,27,100)" index="1849728" value="1"/>
  <variable name="X(13,28,118)" index="1856943" value="1"/>
  <variable name="X(13,53,24)" index="1864046" value="1"/>
  <variable name="X(13,123,12)" index="1871231" value="1"/>
  <variable name="X(14,62,54)" index="1878470" value="1"/>
  <variable name="X(14,105,633)" index="1886246" value="1"/>
  <variable name="X(14,106,720)" index="1893530" value="1"/>
  <variable name="X(14,124,13)" index="1900020" value="1"/>
  <variable name="X(15,45,915)" index="1908119" value="1"/>
  <variable name="X(16,126,2875)" index="1917276" value="1"/>
  <variable name="X(17,25,651)" index="1922249" value="1"/>
  <variable name="X(17,28,636)" index="1929431" value="1"/>
  <variable name="X(17,57,25)" index="1936017" value="1"/>
  <variable name="X(17,73,17)" index="1943206" value="1"/>
  <variable name="X(17,90,43)" index="1950429" value="1"/>
  <variable name="X(17,127,14)" index="1957597" value="1"/>
  <variable name="X(18,11,1021)" index="1965801" value="1"/>
  <variable name="X(18,24,650)" index="1972627" value="1"/>
  <variable name="X(19,8,639)" index="1979813" value="1"/>
  <variable name="X(19,27,22)" index="1986393" value="1"/>
  <variable name="X(19,28,11)" index="1993579" value="1"/>
  <variable name="X(19,48,30)" index="2000795" value="1"/>
  <variable name="X(19,129,15)" index="2007977" value="1"/>
  <variable name="X(20,7,104)" index="2015263" value="1"/>
  <variable name="X(20,8,105)" index="2022461" value="1"/>
  <variable name="X(20,13,12)" index="2029565" value="1"/>
  <variable name="X(20,130,16)" index="2036766" value="1"/>
  <variable name="X(21,32,11)" index="2043958" value="1"/>
  <variable name="X(21,73,634)" index="2051778" value="1"/>
  <variable name="X(21,131,17)" index="2058358" value="1"/>
  <variable name="X(22,12,2)" index="2065540" value="1"/>
  <variable name="X(22,47,724)" index="2073459" value="1"/>
  <variable name="X(22,132,115)" index="2080047" value="1"/>
  <variable name="X(23,11,1464)" index="2088593" value="1"/>
  <variable name="X(23,133,18)" index="2094344" value="1"/>
  <variable name="X(24,32,1525)" index="2103048" value="1"/>
  <variable name="X(24,134,19)" index="2108739" value="1"/>
  <variable name="X(25,17,1533)" index="2117450" value="1"/>
  <variable name="X(25,28,1532)" index="2124646" value="1"/>
  <variable name="X(25,135,20)" index="2130331" value="1"/>
  <variable name="X(26,29,24)" index="2137532" value="1"/>
  <variable name="X(26,53,1615)" index="2146320" value="1"/>
  <variable name="X(26,136,21)" index="2151923" value="1"/>
  <variable name="X(27,13,1622)" index="2160721" value="1"/>
  <variable name="X(27,19,100)" index="2166396" value="1"/>
  <variable name="X(27,137,22)" index="2173515" value="1"/>
  <variable name="X(28,13,637)" index="2181327" value="1"/>
  <variable name="X(28,17,14)" index="2187901" value="1"/>
  <variable name="X(28,19,634)" index="2195718" value="1"/>
  <variable name="X(28,25,20)" index="2202301" value="1"/>
  <variable name="X(28,138,23)" index="2209501" value="1"/>
  <variable name="X(29,26,1729)" index="2218404" value="1"/>
  <variable name="X(29,30,123)" index="2223995" value="1"/>
  <variable name="X(29,139,24)" index="2231093" value="1"/>
  <variable name="X(30,29,655)" index="2238921" value="1"/>
  <variable name="X(30,78,1620)" index="2247083" value="1"/>
  <variable name="X(30,140,25)" index="2252685" value="1"/>
  <variable name="X(31,85,1856)" index="2261713" value="1"/>
  <variable name="X(31,86,74)" index="2267128" value="1"/>
  <variable name="X(31,100,449)" index="2274700" value="1"/>
  <variable name="X(31,101,1206)" index="2282654" value="1"/>
  <variable name="X(31,141,26)" index="2288671" value="1"/>
  <variable name="X(32,11,11)" index="2295853" value="1"/>
  <variable name="X(32,21,634)" index="2303673" value="1"/>
  <variable name="X(32,24,19)" index="2310255" value="1"/>
  <variable name="X(32,142,27)" index="2317460" value="1"/>
  <variable name="X(33,34,2047)" index="2326677" value="1"/>
  <variable name="X(33,44,35)" index="2331862" value="1"/>
  <variable name="X(33,67,59)" index="2339083" value="1"/>
  <variable name="X(33,75,164)" index="2346385" value="1"/>
  <variable name="X(33,143,28)" index="2353446" value="1"/>
  <variable name="X(34,6,4)" index="2360619" value="1"/>
  <variable name="X(34,7,7)" index="2367819" value="1"/>
  <variable name="X(34,33,28)" index="2375037" value="1"/>
  <variable name="X(34,46,94)" index="2382300" value="1"/>
  <variable name="X(34,144,29)" index="2389432" value="1"/>
  <variable name="X(35,47,2)" index="2396602" value="1"/>
  <variable name="X(35,103,100)" index="2403897" value="1"/>
  <variable name="X(35,105,13)" index="2411007" value="1"/>
  <variable name="X(35,145,30)" index="2418221" value="1"/>
  <variable name="X(36,1,3)" index="2425391" value="1"/>
  <variable name="X(36,54,669)" index="2433254" value="1"/>
  <variable name="X(36,76,1)" index="2439783" value="1"/>
  <variable name="X(37,40,1)" index="2446980" value="1"/>
  <variable name="X(37,54,38)" index="2454214" value="1"/>
  <variable name="X(37,76,3)" index="2461376" value="1"/>
  <variable name="X(37,147,31)" index="2468601" value="1"/>
  <variable name="X(38,11,880)" index="2476647" value="1"/>
  <variable name="X(38,59,683)" index="2483647" value="1"/>
  <variable name="X(38,62,633)" index="2490794" value="1"/>
  <variable name="X(38,148,32)" index="2497390" value="1"/>
  <variable name="X(39,49,404)" index="2504959" value="1"/>
  <variable name="X(39,50,366)" index="2512118" value="1"/>
  <variable name="X(39,53,100)" index="2519049" value="1"/>
  <variable name="X(39,55,47)" index="2526193" value="1"/>
  <variable name="X(39,149,33)" index="2533376" value="1"/>
  <variable name="X(40,2,1)" index="2540541" value="1"/>
  <variable name="X(40,10,8)" index="2547745" value="1"/>
  <variable name="X(40,37,3)" index="2554937" value="1"/>
  <variable name="X(40,150,34)" index="2562165" value="1"/>
  <variable name="X(41,42,2680)" index="2572008" value="1"/>
  <variable name="X(41,69,92)" index="2576617" value="1"/>
  <variable name="X(41,72,426)" index="2584148" value="1"/>
  <variable name="X(41,81,168)" index="2591087" value="1"/>
  <variable name="X(41,82,93)" index="2598209" value="1"/>
  <variable name="X(42,41,2746)" index="2608059" value="1"/>
  <variable name="X(42,63,55)" index="2612565" value="1"/>
  <variable name="X(42,69,2753)" index="2622460" value="1"/>
  <variable name="X(42,72,2744)" index="2629648" value="1"/>
  <variable name="X(42,152,35)" index="2634136" value="1"/>
  <variable name="X(43,44,2770)" index="2644068" value="1"/>
  <variable name="X(43,69,35)" index="2648530" value="1"/>
  <variable name="X(43,80,1927)" index="2657619" value="1"/>
  <variable name="X(43,110,1914)" index="2664803" value="1"/>
  <variable name="X(43,153,36)" index="2670122" value="1"/>
  <variable name="X(44,33,1882)" index="2679165" value="1"/>
  <variable name="X(44,43,35)" index="2684515" value="1"/>
  <variable name="X(44,70,61)" index="2691738" value="1"/>
  <variable name="X(44,79,68)" index="2698942" value="1"/>
  <variable name="X(44,80,69)" index="2706140" value="1"/>
  <variable name="X(44,82,71)" index="2713339" value="1"/>
  <variable name="X(44,154,1)" index="2720466" value="1"/>
  <variable name="X(45,16,2875)" index="2730537" value="1"/>
  <variable name="X(45,54,915)" index="2735774" value="1"/>
  <variable name="X(45,61,53)" index="2742109" value="1"/>
  <variable name="X(45,155,38)" index="2749291" value="1"/>
  <variable name="X(46,34,1)" index="2756451" value="1"/>
  <variable name="X(46,65,57)" index="2763704" value="1"/>
  <variable name="X(46,68,101)" index="2770945" value="1"/>
  <variable name="X(46,75,65)" index="2778106" value="1"/>
  <variable name="X(46,156,39)" index="2785277" value="1"/>
  <variable name="X(47,22,2)" index="2792437" value="1"/>
  <variable name="X(47,35,13)" index="2799645" value="1"/>
  <variable name="X(47,48,878)" index="2807707" value="1"/>
  <variable name="X(47,157,40)" index="2814066" value="1"/>
  <variable name="X(48,19,729)" index="2821952" value="1"/>
  <variable name="X(48,47,13)" index="2828433" value="1"/>
  <variable name="X(48,74,51)" index="2835668" value="1"/>
  <variable name="X(48,158,41)" index="2842855" value="1"/>
  <variable name="X(49,5,94)" index="2850105" value="1"/>
  <variable name="X(49,39,33)" index="2857241" value="1"/>
  <variable name="X(49,50,4)" index="2864409" value="1"/>
  <variable name="X(49,159,42)" index="2871644" value="1"/>
  <variable name="X(50,4,4)" index="2878803" value="1"/>
  <variable name="X(50,39,97)" index="2886093" value="1"/>
  <variable name="X(50,49,94)" index="2893287" value="1"/>
  <variable name="X(50,71,56)" index="2900446" value="1"/>
  <variable name="X(50,160,141)" index="2907728" value="1"/>
  <variable name="X(51,52,143)" index="2914927" value="1"/>
  <variable name="X(51,58,3385)" index="2925366" value="1"/>
  <variable name="X(51,94,181)" index="2929359" value="1"/>
  <variable name="X(51,96,75)" index="2936450" value="1"/>
  <variable name="X(51,161,2)" index="2943574" value="1"/>
  <variable name="X(52,51,2)" index="2950771" value="1"/>
  <variable name="X(52,89,67)" index="2958033" value="1"/>
  <variable name="X(52,90,179)" index="2965342" value="1"/>
  <variable name="X(52,94,80)" index="2972440" value="1"/>
  <variable name="X(52,162,44)" index="2979601" value="1"/>
  <variable name="X(53,13,104)" index="2986858" value="1"/>
  <variable name="X(53,26,21)" index="2993972" value="1"/>
  <variable name="X(53,39,366)" index="3001514" value="1"/>
  <variable name="X(53,163,45)" index="3008390" value="1"/>
  <variable name="X(54,36,923)" index="3016465" value="1"/>
  <variable name="X(54,37,915)" index="3023654" value="1"/>
  <variable name="X(54,45,38)" index="3029974" value="1"/>
  <variable name="X(54,60,52)" index="3037185" value="1"/>
  <variable name="X(54,164,46)" index="3044376" value="1"/>
  <variable name="X(55,39,3389)" index="3054916" value="1"/>
  <variable name="X(55,56,48)" index="3058772" value="1"/>
  <variable name="X(55,165,47)" index="3065968" value="1"/>
  <variable name="X(56,3,635)" index="3073753" value="1"/>
  <variable name="X(56,55,146)" index="3080461" value="1"/>
  <variable name="X(56,93,96)" index="3087608" value="1"/>
  <variable name="X(56,166,48)" index="3094757" value="1"/>
  <variable name="X(57,17,108)" index="3102014" value="1"/>
  <variable name="X(57,58,50)" index="3109153" value="1"/>
  <variable name="X(57,78,25)" index="3116325" value="1"/>
  <variable name="X(57,167,49)" index="3123546" value="1"/>
  <variable name="X(58,51,96)" index="3130790" value="1"/>
  <variable name="X(58,57,99)" index="3137990" value="1"/>
  <variable name="X(58,93,79)" index="3145167" value="1"/>
  <variable name="X(58,168,50)" index="3152335" value="1"/>
  <variable name="X(59,38,753)" index="3160235" value="1"/>
  <variable name="X(59,108,721)" index="3167400" value="1"/>
  <variable name="X(59,169,51)" index="3173927" value="1"/>
  <variable name="X(60,170,52)" index="3181125" value="1"/>
  <variable name="X(61,45,4070)" index="3192340" value="1"/>
  <variable name="X(61,60,3011)" index="3198478" value="1"/>
  <variable name="X(61,171,53)" index="3202717" value="1"/>
  <variable name="X(62,14,633)" index="3210494" value="1"/>
  <variable name="X(62,38,880)" index="3217938" value="1"/>
  <variable name="X(62,172,54)" index="3224309" value="1"/>
  <variable name="X(63,42,4193)" index="3235645" value="1"/>
  <variable name="X(63,173,55)" index="3238704" value="1"/>
  <variable name="X(64,71,1856)" index="3247702" value="1"/>
  <variable name="X(64,72,91)" index="3253134" value="1"/>
  <variable name="X(64,85,2062)" index="3262302" value="1"/>
  <variable name="X(64,174,56)" index="3267493" value="1"/>
  <variable name="X(65,8,3054)" index="3277688" value="1"/>
  <variable name="X(65,9,191)" index="3282022" value="1"/>
  <variable name="X(65,46,368)" index="3289396" value="1"/>
  <variable name="X(65,175,57)" index="3296282" value="1"/>
  <variable name="X(66,2,101)" index="3303523" value="1"/>
  <variable name="X(66,68,1)" index="3310620" value="1"/>
  <variable name="X(66,176,58)" index="3317874" value="1"/>
  <variable name="X(67,33,4555)" index="3329568" value="1"/>
  <variable name="X(67,110,88)" index="3332298" value="1"/>
  <variable name="X(67,177,59)" index="3339466" value="1"/>
  <variable name="X(68,46,1)" index="3346605" value="1"/>
  <variable name="X(68,66,101)" index="3353902" value="1"/>
  <variable name="X(68,178,1176)" index="3362174" value="1"/>
  <variable name="X(69,41,2772)" index="3370967" value="1"/>
  <variable name="X(69,42,35)" index="3375427" value="1"/>
  <variable name="X(69,43,92)" index="3382681" value="1"/>
  <variable name="X(69,179,60)" index="3389846" value="1"/>
  <variable name="X(70,44,4798)" index="3401781" value="1"/>
  <variable name="X(70,180,61)" index="3404241" value="1"/>
  <variable name="X(71,50,1856)" index="3413233" value="1"/>
  <variable name="X(71,64,56)" index="3418630" value="1"/>
  <variable name="X(71,181,62)" index="3425833" value="1"/>
  <variable name="X(72,41,92)" index="3433060" value="1"/>
  <variable name="X(72,42,91)" index="3440256" value="1"/>
  <variable name="X(72,64,2062)" index="3449424" value="1"/>
  <variable name="X(72,182,426)" index="3454985" value="1"/>
  <variable name="X(73,12,110)" index="3461866" value="1"/>
  <variable name="X(73,17,634)" index="3469587" value="1"/>
  <variable name="X(73,21,11)" index="3476161" value="1"/>
  <variable name="X(73,183,63)" index="3483410" value="1"/>
  <variable name="X(74,12,51)" index="3490595" value="1"/>
  <variable name="X(74,48,672)" index="3498413" value="1"/>
  <variable name="X(74,184,64)" index="3505002" value="1"/>
  <variable name="X(75,33,5171)" index="3517306" value="1"/>
  <variable name="X(75,46,5173)" index="3524505" value="1"/>
  <variable name="X(75,185,65)" index="3526594" value="1"/>
  <variable name="X(76,36,3)" index="3533729" value="1"/>
  <variable name="X(76,37,1)" index="3540924" value="1"/>
  <variable name="X(76,186,66)" index="3548186" value="1"/>
  <variable name="X(77,88,76)" index="3555393" value="1"/>
  <variable name="X(77,89,5215)" index="3567729" value="1"/>
  <variable name="X(77,187,67)" index="3569778" value="1"/>
  <variable name="X(78,30,25)" index="3576933" value="1"/>
  <variable name="X(78,57,1620)" index="3585725" value="1"/>
  <variable name="X(78,188,167)" index="3591469" value="1"/>
  <variable name="X(79,44,5391)" index="3603890" value="1"/>
  <variable name="X(79,81,70)" index="3605766" value="1"/>
  <variable name="X(79,189,68)" index="3612961" value="1"/>
  <variable name="X(80,43,5399)" index="3625489" value="1"/>
  <variable name="X(80,44,5398)" index="3632685" value="1"/>
  <variable name="X(80,190,69)" index="3634553" value="1"/>
  <variable name="X(81,41,5388)" index="3647069" value="1"/>
  <variable name="X(81,79,168)" index="3649046" value="1"/>
  <variable name="X(81,191,70)" index="3656145" value="1"/>
  <variable name="X(82,41,426)" index="3663698" value="1"/>
  <variable name="X(82,44,93)" index="3670562" value="1"/>
  <variable name="X(82,192,71)" index="3677737" value="1"/>
  <variable name="X(83,11,5603)" index="3690466" value="1"/>
  <variable name="X(83,84,5673)" index="3697733" value="1"/>
  <variable name="X(83,193,172)" index="3699429" value="1"/>
  <variable name="X(84,11,5690)" index="3712144" value="1"/>
  <variable name="X(84,194,72)" index="3713723" value="1"/>
  <variable name="X(85,31,26)" index="3720874" value="1"/>
  <variable name="X(85,64,91)" index="3728136" value="1"/>
  <variable name="X(85,102,1858)" index="3737100" value="1"/>
  <variable name="X(85,195,73)" index="3742512" value="1"/>
  <variable name="X(86,31,5814)" index="3755450" value="1"/>
  <variable name="X(86,91,1938)" index="3758771" value="1"/>
  <variable name="X(86,196,74)" index="3764104" value="1"/>
  <variable name="X(87,95,81)" index="3771308" value="1"/>
  <variable name="X(87,96,5901)" index="3784325" value="1"/>
  <variable name="X(87,197,75)" index="3785696" value="1"/>
  <variable name="X(88,77,5967)" index="3798785" value="1"/>
  <variable name="X(88,95,5288)" index="3805303" value="1"/>
  <variable name="X(88,198,76)" index="3807288" value="1"/>
  <variable name="X(89,52,5215)" index="3819624" value="1"/>
  <variable name="X(89,77,67)" index="3821673" value="1"/>
  <variable name="X(89,199,77)" index="3828880" value="1"/>
  <variable name="X(90,17,3481)" index="3839481" value="1"/>
  <variable name="X(90,52,2)" index="3843199" value="1"/>
  <variable name="X(90,200,78)" index="3850472" value="1"/>
  <variable name="X(91,86,6180)" index="3863771" value="1"/>
  <variable name="X(91,92,6160)" index="3870948" value="1"/>
  <variable name="X(91,201,1199)" index="3873184" value="1"/>
  <variable name="X(92,91,1199)" index="3880381" value="1"/>
  <variable name="X(92,102,6160)" index="3892539" value="1"/>
  <variable name="X(92,202,1200)" index="3894776" value="1"/>
  <variable name="X(93,56,635)" index="3901408" value="1"/>
  <variable name="X(93,58,96)" index="3908066" value="1"/>
  <variable name="X(93,203,79)" index="3915246" value="1"/>
  <variable name="X(94,51,6336)" index="3928700" value="1"/>
  <variable name="X(94,52,6335)" index="3935896" value="1"/>
  <variable name="X(94,204,80)" index="3936838" value="1"/>
  <variable name="X(95,87,5288)" index="3949243" value="1"/>
  <variable name="X(95,88,5967)" index="3957119" value="1"/>
  <variable name="X(95,109,87)" index="3958436" value="1"/>
  <variable name="X(95,205,81)" index="3965627" value="1"/>
  <variable name="X(96,51,5901)" index="3978644" value="1"/>
  <variable name="X(96,87,75)" index="3980015" value="1"/>
  <variable name="X(96,206,448)" index="3987585" value="1"/>
  <variable name="X(97,58,6518)" index="4000852" value="1"/>
  <variable name="X(99,64,6567)" index="4008098" value="1"/>
  <variable name="X(100,31,6579)" index="4015307" value="1"/>
  <variable name="X(100,210,449)" index="4016374" value="1"/>
  <variable name="X(101,31,6580)" index="4029702" value="1"/>
  <variable name="X(101,211,1206)" index="4031525" value="1"/>
  <variable name="X(102,3,1858)" index="4039374" value="1"/>
  <variable name="X(102,4,1859)" index="4046572" value="1"/>
  <variable name="X(102,85,26)" index="4051936" value="1"/>
  <variable name="X(102,92,1199)" index="4060306" value="1"/>
  <variable name="X(102,212,82)" index="4066386" value="1"/>
  <variable name="X(103,35,2)" index="4073503" value="1"/>
  <variable name="X(103,104,100)" index="4080798" value="1"/>
  <variable name="X(103,213,184)" index="4088079" value="1"/>
  <variable name="X(104,1,100)" index="4095192" value="1"/>
  <variable name="X(104,103,2)" index="4102291" value="1"/>
  <variable name="X(104,214,83)" index="4109569" value="1"/>
  <variable name="X(105,14,13)" index="4116696" value="1"/>
  <variable name="X(105,35,633)" index="4124513" value="1"/>
  <variable name="X(105,215,84)" index="4131161" value="1"/>
  <variable name="X(106,14,110)" index="4138384" value="1"/>
  <variable name="X(106,107,877)" index="4146348" value="1"/>
  <variable name="X(106,216,85)" index="4152753" value="1"/>
  <variable name="X(107,12,877)" index="4160742" value="1"/>
  <variable name="X(107,106,85)" index="4167147" value="1"/>
  <variable name="X(107,108,51)" index="4174310" value="1"/>
  <variable name="X(107,217,86)" index="4181542" value="1"/>
  <variable name="X(108,59,51)" index="4188704" value="1"/>
  <variable name="X(108,107,721)" index="4196571" value="1"/>
  <variable name="X(109,95,7105)" index="4210152" value="1"/>
  <variable name="X(109,219,87)" index="4210331" value="1"/>
  <variable name="X(110,43,4583)" index="4222024" value="1"/>
  <variable name="X(110,67,1914)" index="4226552" value="1"/>
  <variable name="X(110,70,4608)" index="4236443" value="1"/>
  <variable name="X(110,220,88)" index="4239120" value="1"/>
 </variables>
</CPLEXSolution>
